c	Created in graph generator tool by Shahar Bardugo & Dorin Matzrafi
c
p	sp 5 20
c	graph contains 5 nodes and 20 arcs
c
a	1	2	477
a	2	1	572
a	1	3	933
a	1	4	478
a	1	5	146
a	2	3	128
a	2	4	678
a	2	5	912
a	3	1	31
a	3	2	417
a	3	4	754
a	3	5	684
a	4	2	694
a	4	3	126
a	4	5	541
a	5	4	402
a	4	1	48
a	5	1	27
a	5	2	931
a	5	3	236
